
Gurobi 10.0.1 (linux64) logging started Mon Apr  7 10:50:31 2025

Set parameter LogFile to value "Results/OneScenarioExperiments/option1_without_equality_constraints_v2.log"
Set parameter TimeLimit to value 84600
Gurobi Optimizer version 10.0.1 build v10.0.1rc0 (linux64)

CPU model: AMD EPYC 9654 96-Core Processor, instruction set [SSE2|AVX|AVX2|AVX512]
Thread count: 192 physical cores, 192 logical processors, using up to 32 threads

Academic license 656792 - for non-commercial use only - registered to b.___@student.vu.nl
Optimize a model with 1703600 rows, 1948128 columns and 7223504 nonzeros
Model fingerprint: 0x27c4ece6
Coefficient statistics:
  Matrix range     [2e-01, 1e+00]
  Objective range  [6e-05, 5e+00]
  Bounds range     [0e+00, 0e+00]
  RHS range        [1e-02, 1e+03]
Presolve removed 1462602 rows and 1548265 columns
Presolve time: 4.37s
Presolved: 240998 rows, 399890 columns, 1511400 nonzeros

Concurrent LP optimizer: primal simplex, dual simplex, and barrier
Showing barrier log only...

Ordering time: 1.79s

Barrier statistics:
 AA' NZ     : 1.945e+06
 Factor NZ  : 2.160e+07 (roughly 240 MB of memory)
 Factor Ops : 1.926e+10 (less than 1 second per iteration)
 Threads    : 30

                  Objective                Residual
Iter       Primal          Dual         Primal    Dual     Compl     Time
   0  -3.10781178e+05  2.11029870e+08  7.82e+03 7.54e+01  3.41e+04     7s
   1  -1.00656732e+07  1.63107968e+08  1.98e+03 1.12e+01  7.57e+03     7s
   2  -1.08632675e+07  7.09456542e+07  4.78e+02 7.05e-01  1.41e+03     7s
   3  -5.30308518e+06  1.65228610e+07  7.11e+01 5.25e-02  2.35e+02     7s
   4  -1.31050637e+06  6.12825982e+06  1.34e+01 1.38e-02  6.01e+01     7s
   5  -5.58494368e+05  2.73550417e+06  4.79e+00 5.46e-03  2.41e+01     7s
   6  -2.26924494e+05  1.02146795e+06  1.79e+00 1.76e-03  8.47e+00     8s
   7  -3.65942817e+04  2.65207289e+05  2.61e-01 3.28e-04  1.80e+00     8s
   8   5.33282895e+03  7.25485815e+04  2.90e-02 6.32e-05  3.75e-01     8s
   9   1.21159234e+04  4.41612837e+04  1.37e-02 2.88e-05  1.77e-01     8s
  10   1.59822822e+04  3.26835893e+04  6.74e-03 1.48e-05  9.15e-02     8s
  11   1.84845813e+04  2.74614870e+04  3.02e-03 7.99e-06  4.88e-02     8s
  12   1.98031509e+04  2.54146363e+04  1.39e-03 5.39e-06  3.02e-02     8s
  13   2.02649267e+04  2.37393867e+04  9.22e-04 3.27e-06  1.87e-02     8s
  14   2.08045262e+04  2.25517427e+04  4.16e-04 1.61e-06  9.37e-03     8s
  15   2.11167341e+04  2.19959791e+04  1.82e-04 8.30e-07  4.70e-03     8s
  16   2.12114741e+04  2.18313334e+04  1.18e-04 5.96e-07  3.31e-03     8s
  17   2.12700650e+04  2.17364761e+04  8.00e-05 4.61e-07  2.49e-03     8s
  18   2.13545144e+04  2.15110951e+04  3.03e-05 1.32e-07  8.38e-04     9s
  19   2.13914087e+04  2.14556222e+04  1.13e-05 5.21e-08  3.43e-04     9s
  20   2.14092701e+04  2.14323205e+04  3.35e-06 1.91e-08  1.23e-04     9s
  21   2.14163916e+04  2.14208688e+04  5.66e-07 3.10e-09  2.39e-05     9s
  22   2.14175326e+04  2.14191092e+04  2.26e-07 8.49e-10  8.44e-06     9s
  23   2.14180634e+04  2.14187302e+04  8.72e-08 3.54e-10  3.57e-06     9s
  24   2.14182200e+04  2.14185827e+04  4.87e-08 1.79e-10  1.94e-06     9s
  25   2.14183355e+04  2.14185006e+04  2.06e-08 8.19e-11  8.84e-07     9s
  26   2.14184047e+04  2.14184427e+04  4.57e-09 1.41e-11  2.04e-07     9s
  27   2.14184245e+04  2.14184297e+04  1.53e-08 1.04e-12  2.81e-08     9s
  28   2.14184280e+04  2.14184285e+04  1.04e-07 5.72e-13  2.87e-09     9s
  29   2.14184284e+04  2.14184284e+04  4.51e-07 7.23e-13  3.62e-10    10s

Barrier solved model in 29 iterations and 9.50 seconds (9.69 work units)
Optimal objective 2.14184284e+04

Crossover log...

   36862 DPushes remaining with DInf 9.8878687e-04                10s
       0 DPushes remaining with DInf 0.0000000e+00                10s

   16938 PPushes remaining with PInf 1.9550945e-04                10s
       0 PPushes remaining with PInf 0.0000000e+00                10s

  Push phase complete: Pinf 0.0000000e+00, Dinf 1.7846875e-01     10s

Iteration    Objective       Primal Inf.    Dual Inf.      Time
   49005    2.1418428e+04   0.000000e+00   1.784688e-01     10s

Solved with barrier
Extra simplex iterations after uncrush: 3
   50221    2.1418428e+04   0.000000e+00   0.000000e+00     10s

Use crossover to convert LP symmetric solution to basic solution...
Crossover log...

    2863 DPushes remaining with DInf 0.0000000e+00                11s
       0 DPushes remaining with DInf 0.0000000e+00                11s

    4614 PPushes remaining with PInf 0.0000000e+00                11s
       0 PPushes remaining with PInf 0.0000000e+00                11s

  Push phase complete: Pinf 0.0000000e+00, Dinf 3.0818539e-12     11s

Iteration    Objective       Primal Inf.    Dual Inf.      Time
   66356    2.1418428e+04   0.000000e+00   1.142535e+06     15s
   74996    2.1418889e+04   0.000000e+00   4.399680e+06     20s
   79005    2.1418926e+04   0.000000e+00   9.815692e+04     26s
   81794    2.1418939e+04   0.000000e+00   1.958442e+06     32s
   84710    2.1418944e+04   0.000000e+00   2.824084e+05     36s
   86018    2.1418951e+04   0.000000e+00   3.389148e+05     40s
   88010    2.1418957e+04   0.000000e+00   1.175493e+06     47s
   89284    2.1418960e+04   0.000000e+00   3.127178e+05     51s
   90696    2.1418964e+04   0.000000e+00   1.201834e+06     56s
   91979    2.1418968e+04   0.000000e+00   1.201672e+06     61s
   93890    2.1418972e+04   0.000000e+00   5.830779e+05     67s
   95164    2.1418975e+04   0.000000e+00   1.157714e+06     72s
   96438    2.1418977e+04   0.000000e+00   1.714681e+06     78s
   97075    2.1418979e+04   0.000000e+00   1.766573e+06     82s
   97712    2.1418981e+04   0.000000e+00   1.525854e+06     85s
   98986    2.1418984e+04   0.000000e+00   6.980501e+05     92s
   99623    2.1418986e+04   0.000000e+00   1.879127e+06     95s
  100897    2.1418989e+04   0.000000e+00   1.193016e+06    102s
  101534    2.1418990e+04   0.000000e+00   7.829339e+05    105s
  102808    2.1418993e+04   0.000000e+00   7.040253e+05    112s
  103445    2.1418994e+04   0.000000e+00   4.186266e+06    115s
  104719    2.1418996e+04   0.000000e+00   4.454185e+06    122s
  105356    2.1418997e+04   0.000000e+00   1.235208e+06    125s
  106630    2.1418999e+04   0.000000e+00   5.720764e+05    132s
  107267    2.1419000e+04   0.000000e+00   1.582594e+06    136s
  108541    2.1419002e+04   0.000000e+00   7.538343e+05    142s
  109815    2.1419005e+04   0.000000e+00   1.083808e+05    147s
  110452    2.1419006e+04   0.000000e+00   1.320858e+05    151s
  111726    2.1419008e+04   0.000000e+00   9.957939e+04    157s
  113000    2.1419009e+04   0.000000e+00   5.338280e+04    163s
  113637    2.1419010e+04   0.000000e+00   5.988139e+04    166s
  114911    2.1419010e+04   0.000000e+00   1.446543e+05    173s
  115548    2.1419011e+04   0.000000e+00   6.534366e+04    177s
  116185    2.1419011e+04   0.000000e+00   5.373287e+05    181s
  117459    2.1419012e+04   0.000000e+00   3.333578e+04    189s
  118096    2.1419012e+04   0.000000e+00   3.450648e+04    193s
  118733    2.1419012e+04   0.000000e+00   2.336689e+04    197s
  119370    2.1419013e+04   0.000000e+00   3.458094e+04    202s
  120007    2.1419013e+04   0.000000e+00   3.615827e+04    206s
  120644    2.1419013e+04   0.000000e+00   5.607890e+04    211s
  121281    2.1419014e+04   0.000000e+00   3.914598e+05    215s
  122555    2.1419014e+04   0.000000e+00   7.174150e+04    223s
  123192    2.1419014e+04   0.000000e+00   2.788048e+04    228s
  123829    2.1419015e+04   0.000000e+00   7.036468e+04    232s
  124466    2.1419015e+04   0.000000e+00   7.807527e+04    237s
  125103    2.1419015e+04   0.000000e+00   9.696230e+04    242s
  125740    2.1419015e+04   0.000000e+00   3.446004e+04    246s
  126377    2.1419016e+04   0.000000e+00   8.225770e+04    250s
  127651    2.1419016e+04   0.000000e+00   5.160700e+04    258s
  128288    2.1419017e+04   0.000000e+00   5.089959e+04    261s
  128925    2.1419017e+04   0.000000e+00   1.535481e+05    265s
  130199    2.1419017e+04   0.000000e+00   2.023930e+05    273s
  130836    2.1419017e+04   0.000000e+00   2.267435e+04    278s
  131473    2.1419017e+04   0.000000e+00   7.560777e+04    283s
  132110    2.1419018e+04   0.000000e+00   1.122575e+05    288s
  132747    2.1419018e+04   0.000000e+00   3.127765e+04    293s
  133384    2.1419018e+04   0.000000e+00   4.627398e+04    298s
  134021    2.1419018e+04   0.000000e+00   5.932554e+04    303s
  134658    2.1419018e+04   0.000000e+00   1.199925e+05    307s
  135295    2.1419018e+04   0.000000e+00   5.452030e+04    313s
  135932    2.1419018e+04   0.000000e+00   4.241107e+04    319s
  136569    2.1419019e+04   0.000000e+00   9.252586e+03    323s
  137206    2.1419019e+04   0.000000e+00   2.511079e+04    328s
  137843    2.1419019e+04   0.000000e+00   3.318745e+05    333s
  138480    2.1419019e+04   0.000000e+00   1.020159e+04    338s
  139117    2.1419019e+04   0.000000e+00   1.244461e+04    342s
  139754    2.1419019e+04   0.000000e+00   5.120337e+04    347s
  140391    2.1419019e+04   0.000000e+00   1.784874e+04    352s
  141028    2.1419019e+04   0.000000e+00   3.371381e+04    356s
  141665    2.1419019e+04   0.000000e+00   1.184290e+04    362s
  142302    2.1419020e+04   0.000000e+00   1.385501e+04    368s
  142939    2.1419020e+04   0.000000e+00   8.028478e+04    372s
  143576    2.1419020e+04   0.000000e+00   1.755046e+04    376s
  144213    2.1419020e+04   0.000000e+00   1.400441e+04    382s
  144850    2.1419020e+04   0.000000e+00   9.228930e+03    387s
  145487    2.1419020e+04   0.000000e+00   4.181322e+04    391s
  146124    2.1419020e+04   0.000000e+00   1.599317e+04    396s
  146761    2.1419020e+04   0.000000e+00   3.221758e+04    401s
  147398    2.1419020e+04   0.000000e+00   1.039286e+04    407s
  148035    2.1419020e+04   0.000000e+00   5.460587e+03    412s
  148672    2.1419020e+04   0.000000e+00   5.366643e+03    417s
  149309    2.1419021e+04   0.000000e+00   2.865498e+04    423s
  149946    2.1419021e+04   0.000000e+00   4.801964e+04    429s
  150583    2.1419021e+04   0.000000e+00   1.512776e+04    435s
  151220    2.1419021e+04   0.000000e+00   6.536533e+03    440s
  151857    2.1419021e+04   0.000000e+00   6.582328e+03    446s
  152494    2.1419021e+04   0.000000e+00   1.708285e+05    450s
  153131    2.1419021e+04   0.000000e+00   1.249777e+04    455s
  153768    2.1419021e+04   0.000000e+00   9.452437e+03    461s
  154405    2.1419021e+04   0.000000e+00   1.167069e+04    467s
  155042    2.1419021e+04   0.000000e+00   4.706349e+03    472s
  155679    2.1419021e+04   0.000000e+00   5.887279e+03    478s
  156316    2.1419021e+04   0.000000e+00   1.022416e+04    484s
  156953    2.1419021e+04   0.000000e+00   1.542764e+04    489s
  157590    2.1419021e+04   0.000000e+00   1.247509e+04    494s
  158227    2.1419021e+04   0.000000e+00   7.645224e+03    500s
  158864    2.1419021e+04   0.000000e+00   3.005407e+04    505s
  159501    2.1419022e+04   0.000000e+00   2.094620e+04    510s
  160138    2.1419022e+04   0.000000e+00   2.048745e+03    515s
  160775    2.1419022e+04   0.000000e+00   6.489693e+03    520s
  161412    2.1419022e+04   0.000000e+00   9.806991e+03    526s
  162049    2.1419022e+04   0.000000e+00   4.466879e+03    532s
  162686    2.1419022e+04   0.000000e+00   7.915439e+03    537s
  163323    2.1419022e+04   0.000000e+00   1.275146e+04    543s
  163960    2.1419022e+04   0.000000e+00   9.840760e+03    548s
  164597    2.1419022e+04   0.000000e+00   6.434952e+03    554s
  165234    2.1419022e+04   0.000000e+00   8.512131e+03    560s
  165871    2.1419022e+04   0.000000e+00   8.616234e+03    565s
  166508    2.1419022e+04   0.000000e+00   5.404275e+03    569s
  167145    2.1419022e+04   0.000000e+00   3.797836e+03    574s
  167782    2.1419022e+04   0.000000e+00   6.371601e+03    580s
  168419    2.1419022e+04   0.000000e+00   6.306537e+03    585s
  169056    2.1419022e+04   0.000000e+00   2.147472e+03    591s
  169693    2.1419022e+04   0.000000e+00   5.594368e+03    597s
  170330    2.1419022e+04   0.000000e+00   3.980706e+03    603s
  170967    2.1419022e+04   0.000000e+00   1.745724e+03    608s
  171604    2.1419022e+04   0.000000e+00   4.902156e+03    614s
  172241    2.1419022e+04   0.000000e+00   1.007997e+03    619s
  172878    2.1419022e+04   0.000000e+00   3.679755e+02    625s
  173515    2.1419022e+04   0.000000e+00   2.289907e+03    629s
  174152    2.1419022e+04   0.000000e+00   7.001316e+02    635s
  174789    2.1419022e+04   0.000000e+00   3.052602e+03    641s
  175426    2.1419022e+04   0.000000e+00   2.003776e+03    646s
  176063    2.1419022e+04   0.000000e+00   7.904843e+03    653s
  176700    2.1419022e+04   0.000000e+00   7.585120e+02    658s
  177337    2.1419022e+04   0.000000e+00   4.773208e+02    663s
  177974    2.1419022e+04   0.000000e+00   3.357656e+03    668s
  178611    2.1419022e+04   0.000000e+00   2.272263e+04    672s
  179248    2.1419022e+04   0.000000e+00   1.733817e+03    677s
  179885    2.1419022e+04   0.000000e+00   1.290199e+03    682s
  180522    2.1419022e+04   0.000000e+00   1.184848e+03    688s
  181159    2.1419022e+04   0.000000e+00   9.163516e+02    693s
  181796    2.1419022e+04   0.000000e+00   7.845313e+02    698s
  182433    2.1419022e+04   0.000000e+00   4.762335e+02    703s
  183070    2.1419022e+04   0.000000e+00   5.291384e+02    709s
  183707    2.1419022e+04   0.000000e+00   2.394415e+02    713s
  184344    2.1419022e+04   0.000000e+00   1.742328e+02    717s
  184981    2.1419022e+04   0.000000e+00   2.992434e+02    721s
  185618    2.1419022e+04   0.000000e+00   3.023943e+02    726s
  186892    2.1419022e+04   0.000000e+00   1.040281e+03    734s
  187529    2.1419022e+04   0.000000e+00   2.968308e+01    738s
  188166    2.1419022e+04   0.000000e+00   6.498910e+01    741s
  189440    2.1419022e+04   0.000000e+00   2.059623e+02    748s
  190077    2.1419022e+04   0.000000e+00   3.855731e+01    751s
  190714    2.1419022e+04   0.000000e+00   7.314925e+01    755s
  191988    2.1419022e+04   0.000000e+00   8.403306e+00    764s
  192625    2.1419022e+04   0.000000e+00   2.707960e+01    768s
  193262    2.1419022e+04   0.000000e+00   4.947831e+01    773s
  193899    2.1419022e+04   0.000000e+00   4.713996e+01    777s
  194536    2.1419022e+04   0.000000e+00   1.096954e+00    781s
Extra simplex iterations after uncrush: 137305
  194979    2.1418428e+04   0.000000e+00   0.000000e+00    784s

Solved in 194979 iterations and 784.19 seconds (996.25 work units)
Optimal objective  2.141842844e+04
